Version identifier: 20.1.0.0 | 2020-11-10 | 9bedb6d68
CPXPARAM_Simplex_Tolerances_Feasibility          1.0000000000000001e-09
CPXPARAM_TimeLimit                               1e+20
CPXPARAM_MIP_Tolerances_Integrality              0
Lazy constraint(s) or lazy constraint/branch callback is present.
    Disabling dual reductions (CPX_PARAM_REDUCE) in presolve.
    Disabling presolve reductions that prevent crushing forms (CPX_PARAM_PREREFORM).
Tried aggregator 1 time.
MIP Presolve eliminated 0 rows and 16 columns.
Reduced MIP has 32 rows, 480 columns, and 480 nonzeros.
Reduced MIP has 240 binaries, 240 generals, 0 SOSs, and 0 indicators.
Presolve time = 0.25 sec. (0.20 ticks)
Probing time = 0.07 sec. (0.37 ticks)
Tried aggregator 1 time.
Reduced MIP has 32 rows, 480 columns, and 480 nonzeros.
Reduced MIP has 240 binaries, 240 generals, 0 SOSs, and 0 indicators.
Presolve time = 0.01 sec. (0.20 ticks)
Warning: Lazy constraints are present for the setting with smaller integrality
    tolerance than feasibility tolerance.
Probing time = 0.02 sec. (0.37 ticks)
Clique table members: 32.
Problem contains 256 lazy constraints.
MIP emphasis: balance optimality and feasibility.
MIP search method: dynamic search.
Parallel mode: deterministic, using up to 6 threads.
Root relaxation solution time = 0.29 sec. (0.16 ticks)

        Nodes                                         Cuts/
   Node  Left     Objective  IInf  Best Integer    Best Bound    ItCnt     Gap

      0     0     4749.7255     6                   4749.7255       12         
      0     0     4749.7255     6                     Cuts: 4       14         
      0     0     4749.7255    10                     Cuts: 3       16         
      0     0     4749.7255    10                 ZeroHalf: 2       19         
